575,512
576,551
635,548
681,946
591,406
708,491
707,419
874,140
1108,189
709,397
651,406
653,229
810,7
681,106
468,298
414,542
817,139
1137,258
1214,490
921,528
663,349
641,326
611,309
321,46
487,547
427,660
448,639
464,833
523,624
609,458
681,256
802,494
